*SENSE:Minimize
NAME          MODEL
ROWS
 N  OBJ
 L  C0000000
 L  C0000001
 L  C0000002
 L  C0000003
 L  C0000004
 L  C0000005
 L  C0000006
 L  C0000007
 L  C0000008
 L  C0000009
 L  C0000010
 L  C0000011
 L  C0000012
 L  C0000013
 L  C0000014
 L  C0000015
 L  C0000016
 L  C0000017
 L  C0000018
 L  C0000019
 L  C0000020
 L  C0000021
 L  C0000022
 L  C0000023
 L  C0000024
 L  C0000025
 L  C0000026
 L  C0000027
 L  C0000028
 L  C0000029
 L  C0000030
 L  C0000031
 L  C0000032
 L  C0000033
 L  C0000034
 L  C0000035
 L  C0000036
 L  C0000037
 L  C0000038
 L  C0000039
 L  C0000040
 L  C0000041
 L  C0000042
 L  C0000043
 L  C0000044
 L  C0000045
 L  C0000046
 L  C0000047
 L  C0000048
 L  C0000049
 L  C0000050
 L  C0000051
 L  C0000052
 L  C0000053
 L  C0000054
 L  C0000055
 L  C0000056
 L  C0000057
 L  C0000058
 L  C0000059
 L  C0000060
 L  C0000061
 L  C0000062
 L  C0000063
 L  C0000064
 L  C0000065
 L  C0000066
 L  C0000067
 L  C0000068
 L  C0000069
 L  C0000070
 L  C0000071
 L  C0000072
 L  C0000073
 L  C0000074
 L  C0000075
 L  C0000076
 L  C0000077
 L  C0000078
 L  C0000079
 L  C0000080
 L  C0000081
 L  C0000082
 L  C0000083
 L  C0000084
 L  C0000085
 G  C0000086
 G  C0000087
 G  C0000088
 G  C0000089
 G  C0000090
 G  C0000091
 G  C0000092
 G  C0000093
 G  C0000094
 G  C0000095
 G  C0000096
 G  C0000097
 G  C0000098
 G  C0000099
 G  C0000100
 G  C0000101
 G  C0000102
 G  C0000103
 G  C0000104
 G  C0000105
 G  C0000106
 G  C0000107
 G  C0000108
 G  C0000109
 G  C0000110
 G  C0000111
 G  C0000112
 G  C0000113
 G  C0000114
 G  C0000115
 G  C0000116
 G  C0000117
 G  C0000118
 G  C0000119
 G  C0000120
 G  C0000121
COLUMNS
    X0000000  C0000099   1.000000000000e+00
    X0000000  C0000100   1.000000000000e+00
    X0000000  C0000101   1.000000000000e+00
    X0000000  C0000102   1.000000000000e+00
    X0000000  C0000103   1.000000000000e+00
    X0000000  C0000104   1.000000000000e+00
    X0000000  C0000105   1.000000000000e+00
    X0000000  C0000106   1.000000000000e+00
    X0000000  C0000107   1.000000000000e+00
    X0000000  C0000108   1.000000000000e+00
    X0000000  C0000109   1.000000000000e+00
    X0000000  C0000110   1.000000000000e+00
    X0000000  C0000111   1.000000000000e+00
    X0000000  C0000112   1.000000000000e+00
    X0000000  C0000113   1.000000000000e+00
    X0000000  C0000114   1.000000000000e+00
    X0000000  C0000115   1.000000000000e+00
    X0000000  C0000116   1.000000000000e+00
    X0000000  C0000117   1.000000000000e+00
    X0000000  C0000118   1.000000000000e+00
    X0000000  C0000119   1.000000000000e+00
    X0000000  C0000120   1.000000000000e+00
    X0000000  C0000121   1.000000000000e+00
    X0000000  OBJ        1.000000000000e+00
    MARK      'MARKER'                 'INTORG'
    X0000001  C0000000  -3.450000076555e-01
    X0000001  C0000001   3.450000076555e-01
    MARK      'MARKER'                 'INTEND'
    MARK      'MARKER'                 'INTORG'
    X0000002  C0000054  -3.450000076555e-01
    X0000002  C0000055   3.450000076555e-01
    MARK      'MARKER'                 'INTEND'
    MARK      'MARKER'                 'INTORG'
    X0000003  C0000056  -3.450000076555e-01
    X0000003  C0000057   3.450000076555e-01
    MARK      'MARKER'                 'INTEND'
    MARK      'MARKER'                 'INTORG'
    X0000004  C0000010  -3.450000076555e-01
    X0000004  C0000011   3.450000076555e-01
    MARK      'MARKER'                 'INTEND'
    MARK      'MARKER'                 'INTORG'
    X0000005  C0000058  -3.450000076555e-01
    X0000005  C0000059   3.450000076555e-01
    MARK      'MARKER'                 'INTEND'
    MARK      'MARKER'                 'INTORG'
    X0000006  C0000060  -3.450000076555e-01
    X0000006  C0000061   3.450000076555e-01
    MARK      'MARKER'                 'INTEND'
    MARK      'MARKER'                 'INTORG'
    X0000007  C0000012  -3.450000076555e-01
    X0000007  C0000013   3.450000076555e-01
    MARK      'MARKER'                 'INTEND'
    MARK      'MARKER'                 'INTORG'
    X0000008  C0000038  -3.450000076555e-01
    X0000008  C0000039   3.450000076555e-01
    MARK      'MARKER'                 'INTEND'
    MARK      'MARKER'                 'INTORG'
    X0000009  C0000040  -3.450000076555e-01
    X0000009  C0000041   3.450000076555e-01
    MARK      'MARKER'                 'INTEND'
    MARK      'MARKER'                 'INTORG'
    X0000010  C0000016  -3.450000076555e-01
    X0000010  C0000017   3.450000076555e-01
    MARK      'MARKER'                 'INTEND'
    MARK      'MARKER'                 'INTORG'
    X0000011  C0000042  -3.450000076555e-01
    X0000011  C0000043   3.450000076555e-01
    MARK      'MARKER'                 'INTEND'
    MARK      'MARKER'                 'INTORG'
    X0000012  C0000062  -3.450000076555e-01
    X0000012  C0000063   3.450000076555e-01
    MARK      'MARKER'                 'INTEND'
    MARK      'MARKER'                 'INTORG'
    X0000013  C0000064  -3.450000076555e-01
    X0000013  C0000065   3.450000076555e-01
    MARK      'MARKER'                 'INTEND'
    MARK      'MARKER'                 'INTORG'
    X0000014  C0000024  -3.450000076555e-01
    X0000014  C0000025   3.450000076555e-01
    MARK      'MARKER'                 'INTEND'
    MARK      'MARKER'                 'INTORG'
    X0000015  C0000066  -3.450000076555e-01
    X0000015  C0000067   3.450000076555e-01
    MARK      'MARKER'                 'INTEND'
    MARK      'MARKER'                 'INTORG'
    X0000016  C0000068  -3.450000076555e-01
    X0000016  C0000069   3.450000076555e-01
    MARK      'MARKER'                 'INTEND'
    MARK      'MARKER'                 'INTORG'
    X0000017  C0000044  -3.450000076555e-01
    X0000017  C0000045   3.450000076555e-01
    MARK      'MARKER'                 'INTEND'
    MARK      'MARKER'                 'INTORG'
    X0000018  C0000046  -3.450000076555e-01
    X0000018  C0000047   3.450000076555e-01
    MARK      'MARKER'                 'INTEND'
    MARK      'MARKER'                 'INTORG'
    X0000019  C0000026  -3.450000076555e-01
    X0000019  C0000027   3.450000076555e-01
    MARK      'MARKER'                 'INTEND'
    MARK      'MARKER'                 'INTORG'
    X0000020  C0000028  -3.450000076555e-01
    X0000020  C0000029   3.450000076555e-01
    MARK      'MARKER'                 'INTEND'
    MARK      'MARKER'                 'INTORG'
    X0000021  C0000048  -3.450000076555e-01
    X0000021  C0000049   3.450000076555e-01
    MARK      'MARKER'                 'INTEND'
    MARK      'MARKER'                 'INTORG'
    X0000022  C0000050  -3.450000076555e-01
    X0000022  C0000051   3.450000076555e-01
    MARK      'MARKER'                 'INTEND'
    MARK      'MARKER'                 'INTORG'
    X0000023  C0000070  -3.450000076555e-01
    X0000023  C0000071   3.450000076555e-01
    MARK      'MARKER'                 'INTEND'
    MARK      'MARKER'                 'INTORG'
    X0000024  C0000072  -3.450000076555e-01
    X0000024  C0000073   3.450000076555e-01
    MARK      'MARKER'                 'INTEND'
    MARK      'MARKER'                 'INTORG'
    X0000025  C0000002  -3.450000076555e-01
    X0000025  C0000003   3.450000076555e-01
    MARK      'MARKER'                 'INTEND'
    MARK      'MARKER'                 'INTORG'
    X0000026  C0000004  -3.450000076555e-01
    X0000026  C0000005   3.450000076555e-01
    MARK      'MARKER'                 'INTEND'
    MARK      'MARKER'                 'INTORG'
    X0000027  C0000074  -3.450000076555e-01
    X0000027  C0000075   3.450000076555e-01
    MARK      'MARKER'                 'INTEND'
    MARK      'MARKER'                 'INTORG'
    X0000028  C0000052  -3.450000076555e-01
    X0000028  C0000053   3.450000076555e-01
    MARK      'MARKER'                 'INTEND'
    MARK      'MARKER'                 'INTORG'
    X0000029  C0000076  -3.450000076555e-01
    X0000029  C0000077   3.450000076555e-01
    MARK      'MARKER'                 'INTEND'
    MARK      'MARKER'                 'INTORG'
    X0000030  C0000078  -3.450000076555e-01
    X0000030  C0000079   3.450000076555e-01
    MARK      'MARKER'                 'INTEND'
    MARK      'MARKER'                 'INTORG'
    X0000031  C0000014  -3.450000076555e-01
    X0000031  C0000015   3.450000076555e-01
    MARK      'MARKER'                 'INTEND'
    MARK      'MARKER'                 'INTORG'
    X0000032  C0000030  -3.450000076555e-01
    X0000032  C0000031   3.450000076555e-01
    MARK      'MARKER'                 'INTEND'
    MARK      'MARKER'                 'INTORG'
    X0000033  C0000080  -3.450000076555e-01
    X0000033  C0000081   3.450000076555e-01
    MARK      'MARKER'                 'INTEND'
    MARK      'MARKER'                 'INTORG'
    X0000034  C0000082  -3.450000076555e-01
    X0000034  C0000083   3.450000076555e-01
    MARK      'MARKER'                 'INTEND'
    MARK      'MARKER'                 'INTORG'
    X0000035  C0000032  -3.450000076555e-01
    X0000035  C0000033   3.450000076555e-01
    MARK      'MARKER'                 'INTEND'
    MARK      'MARKER'                 'INTORG'
    X0000036  C0000034  -3.450000076555e-01
    X0000036  C0000035   3.450000076555e-01
    MARK      'MARKER'                 'INTEND'
    MARK      'MARKER'                 'INTORG'
    X0000037  C0000006  -3.450000076555e-01
    X0000037  C0000007   3.450000076555e-01
    MARK      'MARKER'                 'INTEND'
    MARK      'MARKER'                 'INTORG'
    X0000038  C0000084  -3.450000076555e-01
    X0000038  C0000085   3.450000076555e-01
    MARK      'MARKER'                 'INTEND'
    MARK      'MARKER'                 'INTORG'
    X0000039  C0000008  -3.450000076555e-01
    X0000039  C0000009   3.450000076555e-01
    MARK      'MARKER'                 'INTEND'
    MARK      'MARKER'                 'INTORG'
    X0000040  C0000018  -3.450000076555e-01
    X0000040  C0000019   3.450000076555e-01
    MARK      'MARKER'                 'INTEND'
    MARK      'MARKER'                 'INTORG'
    X0000041  C0000020  -3.450000076555e-01
    X0000041  C0000021   3.450000076555e-01
    MARK      'MARKER'                 'INTEND'
    MARK      'MARKER'                 'INTORG'
    X0000042  C0000036  -3.450000076555e-01
    X0000042  C0000037   3.450000076555e-01
    MARK      'MARKER'                 'INTEND'
    MARK      'MARKER'                 'INTORG'
    X0000043  C0000022  -3.450000076555e-01
    X0000043  C0000023   3.450000076555e-01
    MARK      'MARKER'                 'INTEND'
    X0000044  C0000000   1.000000000000e+00
    X0000044  C0000001  -1.000000000000e+00
    X0000044  C0000099  -1.000000000000e+00
    X0000045  C0000010   1.000000000000e+00
    X0000045  C0000011  -1.000000000000e+00
    X0000045  C0000012   1.000000000000e+00
    X0000045  C0000013  -1.000000000000e+00
    X0000045  C0000054   1.000000000000e+00
    X0000045  C0000055  -1.000000000000e+00
    X0000045  C0000056   1.000000000000e+00
    X0000045  C0000057  -1.000000000000e+00
    X0000045  C0000058   1.000000000000e+00
    X0000045  C0000059  -1.000000000000e+00
    X0000045  C0000060   1.000000000000e+00
    X0000045  C0000061  -1.000000000000e+00
    X0000045  C0000091  -1.000000000000e+00
    X0000045  C0000109  -1.000000000000e+00
    X0000046  C0000016   1.000000000000e+00
    X0000046  C0000017  -1.000000000000e+00
    X0000046  C0000038   1.000000000000e+00
    X0000046  C0000039  -1.000000000000e+00
    X0000046  C0000040   1.000000000000e+00
    X0000046  C0000041  -1.000000000000e+00
    X0000046  C0000042   1.000000000000e+00
    X0000046  C0000043  -1.000000000000e+00
    X0000046  C0000086   1.000000000000e+00
    X0000046  C0000110  -1.000000000000e+00
    X0000047  C0000024   1.000000000000e+00
    X0000047  C0000025  -1.000000000000e+00
    X0000047  C0000054  -1.000000000000e+00
    X0000047  C0000055   1.000000000000e+00
    X0000047  C0000062   1.000000000000e+00
    X0000047  C0000063  -1.000000000000e+00
    X0000047  C0000064   1.000000000000e+00
    X0000047  C0000065  -1.000000000000e+00
    X0000047  C0000066   1.000000000000e+00
    X0000047  C0000067  -1.000000000000e+00
    X0000047  C0000068   1.000000000000e+00
    X0000047  C0000069  -1.000000000000e+00
    X0000047  C0000092  -1.000000000000e+00
    X0000047  C0000111  -1.000000000000e+00
    X0000048  C0000026   1.000000000000e+00
    X0000048  C0000027  -1.000000000000e+00
    X0000048  C0000028   1.000000000000e+00
    X0000048  C0000029  -1.000000000000e+00
    X0000048  C0000038  -1.000000000000e+00
    X0000048  C0000039   1.000000000000e+00
    X0000048  C0000044   1.000000000000e+00
    X0000048  C0000045  -1.000000000000e+00
    X0000048  C0000046   1.000000000000e+00
    X0000048  C0000047  -1.000000000000e+00
    X0000048  C0000087   1.000000000000e+00
    X0000048  C0000112  -1.000000000000e+00
    X0000049  C0000040  -1.000000000000e+00
    X0000049  C0000041   1.000000000000e+00
    X0000049  C0000044  -1.000000000000e+00
    X0000049  C0000045   1.000000000000e+00
    X0000049  C0000048   1.000000000000e+00
    X0000049  C0000049  -1.000000000000e+00
    X0000049  C0000050   1.000000000000e+00
    X0000049  C0000051  -1.000000000000e+00
    X0000049  C0000093  -1.000000000000e+00
    X0000049  C0000113  -1.000000000000e+00
    X0000050  C0000002   1.000000000000e+00
    X0000050  C0000003  -1.000000000000e+00
    X0000050  C0000004   1.000000000000e+00
    X0000050  C0000005  -1.000000000000e+00
    X0000050  C0000056  -1.000000000000e+00
    X0000050  C0000057   1.000000000000e+00
    X0000050  C0000062  -1.000000000000e+00
    X0000050  C0000063   1.000000000000e+00
    X0000050  C0000070   1.000000000000e+00
    X0000050  C0000071  -1.000000000000e+00
    X0000050  C0000072   1.000000000000e+00
    X0000050  C0000073  -1.000000000000e+00
    X0000050  C0000074   1.000000000000e+00
    X0000050  C0000075  -1.000000000000e+00
    X0000050  C0000088   1.000000000000e+00
    X0000050  C0000114  -1.000000000000e+00
    X0000051  C0000016  -1.000000000000e+00
    X0000051  C0000017   1.000000000000e+00
    X0000051  C0000046  -1.000000000000e+00
    X0000051  C0000047   1.000000000000e+00
    X0000051  C0000048  -1.000000000000e+00
    X0000051  C0000049   1.000000000000e+00
    X0000051  C0000052   1.000000000000e+00
    X0000051  C0000053  -1.000000000000e+00
    X0000051  C0000094  -1.000000000000e+00
    X0000051  C0000115  -1.000000000000e+00
    X0000052  C0000010  -1.000000000000e+00
    X0000052  C0000011   1.000000000000e+00
    X0000052  C0000014   1.000000000000e+00
    X0000052  C0000015  -1.000000000000e+00
    X0000052  C0000064  -1.000000000000e+00
    X0000052  C0000065   1.000000000000e+00
    X0000052  C0000070  -1.000000000000e+00
    X0000052  C0000071   1.000000000000e+00
    X0000052  C0000076   1.000000000000e+00
    X0000052  C0000077  -1.000000000000e+00
    X0000052  C0000078   1.000000000000e+00
    X0000052  C0000079  -1.000000000000e+00
    X0000052  C0000089   1.000000000000e+00
    X0000052  C0000116  -1.000000000000e+00
    X0000053  C0000026  -1.000000000000e+00
    X0000053  C0000027   1.000000000000e+00
    X0000053  C0000030   1.000000000000e+00
    X0000053  C0000031  -1.000000000000e+00
    X0000053  C0000042  -1.000000000000e+00
    X0000053  C0000043   1.000000000000e+00
    X0000053  C0000050  -1.000000000000e+00
    X0000053  C0000051   1.000000000000e+00
    X0000053  C0000052  -1.000000000000e+00
    X0000053  C0000053   1.000000000000e+00
    X0000053  C0000095  -1.000000000000e+00
    X0000053  C0000117  -1.000000000000e+00
    X0000054  C0000024  -1.000000000000e+00
    X0000054  C0000025   1.000000000000e+00
    X0000054  C0000058  -1.000000000000e+00
    X0000054  C0000059   1.000000000000e+00
    X0000054  C0000072  -1.000000000000e+00
    X0000054  C0000073   1.000000000000e+00
    X0000054  C0000076  -1.000000000000e+00
    X0000054  C0000077   1.000000000000e+00
    X0000054  C0000080   1.000000000000e+00
    X0000054  C0000081  -1.000000000000e+00
    X0000054  C0000082   1.000000000000e+00
    X0000054  C0000083  -1.000000000000e+00
    X0000054  C0000090   1.000000000000e+00
    X0000054  C0000118  -1.000000000000e+00
    X0000055  C0000032   1.000000000000e+00
    X0000055  C0000033  -1.000000000000e+00
    X0000055  C0000034   1.000000000000e+00
    X0000055  C0000035  -1.000000000000e+00
    X0000055  C0000086  -1.000000000000e+00
    X0000055  C0000091   1.000000000000e+00
    X0000055  C0000096   1.000000000000e+00
    X0000055  C0000100  -1.000000000000e+00
    X0000056  C0000002  -1.000000000000e+00
    X0000056  C0000003   1.000000000000e+00
    X0000056  C0000006   1.000000000000e+00
    X0000056  C0000007  -1.000000000000e+00
    X0000056  C0000060  -1.000000000000e+00
    X0000056  C0000061   1.000000000000e+00
    X0000056  C0000066  -1.000000000000e+00
    X0000056  C0000067   1.000000000000e+00
    X0000056  C0000078  -1.000000000000e+00
    X0000056  C0000079   1.000000000000e+00
    X0000056  C0000080  -1.000000000000e+00
    X0000056  C0000081   1.000000000000e+00
    X0000056  C0000084   1.000000000000e+00
    X0000056  C0000085  -1.000000000000e+00
    X0000056  C0000096  -1.000000000000e+00
    X0000056  C0000119  -1.000000000000e+00
    X0000057  C0000004  -1.000000000000e+00
    X0000057  C0000005   1.000000000000e+00
    X0000057  C0000006  -1.000000000000e+00
    X0000057  C0000007   1.000000000000e+00
    X0000057  C0000028  -1.000000000000e+00
    X0000057  C0000029   1.000000000000e+00
    X0000057  C0000030  -1.000000000000e+00
    X0000057  C0000031   1.000000000000e+00
    X0000057  C0000097  -1.000000000000e+00
    X0000057  C0000120  -1.000000000000e+00
    X0000058  C0000012  -1.000000000000e+00
    X0000058  C0000013   1.000000000000e+00
    X0000058  C0000014  -1.000000000000e+00
    X0000058  C0000015   1.000000000000e+00
    X0000058  C0000068  -1.000000000000e+00
    X0000058  C0000069   1.000000000000e+00
    X0000058  C0000074  -1.000000000000e+00
    X0000058  C0000075   1.000000000000e+00
    X0000058  C0000082  -1.000000000000e+00
    X0000058  C0000083   1.000000000000e+00
    X0000058  C0000084  -1.000000000000e+00
    X0000058  C0000085   1.000000000000e+00
    X0000058  C0000098  -1.000000000000e+00
    X0000058  C0000121  -1.000000000000e+00
    X0000059  C0000008   1.000000000000e+00
    X0000059  C0000009  -1.000000000000e+00
    X0000059  C0000101  -1.000000000000e+00
    X0000060  C0000018   1.000000000000e+00
    X0000060  C0000019  -1.000000000000e+00
    X0000060  C0000020   1.000000000000e+00
    X0000060  C0000021  -1.000000000000e+00
    X0000060  C0000097   1.000000000000e+00
    X0000060  C0000102  -1.000000000000e+00
    X0000061  C0000032  -1.000000000000e+00
    X0000061  C0000033   1.000000000000e+00
    X0000061  C0000036   1.000000000000e+00
    X0000061  C0000037  -1.000000000000e+00
    X0000061  C0000087  -1.000000000000e+00
    X0000061  C0000092   1.000000000000e+00
    X0000061  C0000098   1.000000000000e+00
    X0000061  C0000103  -1.000000000000e+00
    X0000062  C0000018  -1.000000000000e+00
    X0000062  C0000019   1.000000000000e+00
    X0000062  C0000022   1.000000000000e+00
    X0000062  C0000023  -1.000000000000e+00
    X0000062  C0000104  -1.000000000000e+00
    X0000063  C0000000  -1.000000000000e+00
    X0000063  C0000001   1.000000000000e+00
    X0000063  C0000088  -1.000000000000e+00
    X0000063  C0000093   1.000000000000e+00
    X0000063  C0000105  -1.000000000000e+00
    X0000064  C0000008  -1.000000000000e+00
    X0000064  C0000009   1.000000000000e+00
    X0000064  C0000089  -1.000000000000e+00
    X0000064  C0000094   1.000000000000e+00
    X0000064  C0000106  -1.000000000000e+00
    X0000065  C0000020  -1.000000000000e+00
    X0000065  C0000021   1.000000000000e+00
    X0000065  C0000022  -1.000000000000e+00
    X0000065  C0000023   1.000000000000e+00
    X0000065  C0000090  -1.000000000000e+00
    X0000065  C0000095   1.000000000000e+00
    X0000065  C0000107  -1.000000000000e+00
    X0000066  C0000034  -1.000000000000e+00
    X0000066  C0000035   1.000000000000e+00
    X0000066  C0000036  -1.000000000000e+00
    X0000066  C0000037   1.000000000000e+00
    X0000066  C0000108  -1.000000000000e+00
RHS
    RHS       C0000000  -1.150000000000e-04
    RHS       C0000001   3.448850076555e-01
    RHS       C0000002  -5.705604527152e-05
    RHS       C0000003   3.449025467305e-01
    RHS       C0000004  -5.705604527152e-05
    RHS       C0000005   3.449025467305e-01
    RHS       C0000006  -9.746092492869e-05
    RHS       C0000007   3.449025467305e-01
    RHS       C0000008  -1.150000000000e-04
    RHS       C0000009   3.448850076555e-01
    RHS       C0000010  -5.705604527152e-05
    RHS       C0000011   3.449429516102e-01
    RHS       C0000012  -5.705604527152e-05
    RHS       C0000013   3.449025467305e-01
    RHS       C0000014  -5.705604527152e-05
    RHS       C0000015   3.449025467305e-01
    RHS       C0000016  -5.705604527152e-05
    RHS       C0000017   3.449429516102e-01
    RHS       C0000018  -1.150000000000e-04
    RHS       C0000019   3.448850076555e-01
    RHS       C0000020  -1.150000000000e-04
    RHS       C0000021   3.448850076555e-01
    RHS       C0000022  -1.150000000000e-04
    RHS       C0000023   3.448850076555e-01
    RHS       C0000024  -5.705604527152e-05
    RHS       C0000025   3.449429516102e-01
    RHS       C0000026  -5.705604527152e-05
    RHS       C0000027   3.449429516102e-01
    RHS       C0000028  -5.705604527152e-05
    RHS       C0000029   3.449025467305e-01
    RHS       C0000030  -5.705604527152e-05
    RHS       C0000031   3.449025467305e-01
    RHS       C0000032  -1.150000000000e-04
    RHS       C0000033   3.448850076555e-01
    RHS       C0000034  -1.150000000000e-04
    RHS       C0000035   3.448850076555e-01
    RHS       C0000036  -1.150000000000e-04
    RHS       C0000037   3.448850076555e-01
    RHS       C0000038  -5.705604527152e-05
    RHS       C0000039   3.449429516102e-01
    RHS       C0000040  -5.705604527152e-05
    RHS       C0000041   3.449429516102e-01
    RHS       C0000042  -5.705604527152e-05
    RHS       C0000043   3.449429516102e-01
    RHS       C0000044  -5.705604527152e-05
    RHS       C0000045   3.449429516102e-01
    RHS       C0000046  -5.705604527152e-05
    RHS       C0000047   3.449429516102e-01
    RHS       C0000048  -5.705604527152e-05
    RHS       C0000049   3.449429516102e-01
    RHS       C0000050  -5.705604527152e-05
    RHS       C0000051   3.449429516102e-01
    RHS       C0000052  -5.705604527152e-05
    RHS       C0000053   3.449429516102e-01
    RHS       C0000054  -5.705604527152e-05
    RHS       C0000055   3.449429516102e-01
    RHS       C0000056  -5.705604527152e-05
    RHS       C0000057   3.449429516102e-01
    RHS       C0000058  -5.705604527152e-05
    RHS       C0000059   3.449429516102e-01
    RHS       C0000060  -5.705604527152e-05
    RHS       C0000061   3.449025467305e-01
    RHS       C0000062  -5.705604527152e-05
    RHS       C0000063   3.449429516102e-01
    RHS       C0000064  -5.705604527152e-05
    RHS       C0000065   3.449429516102e-01
    RHS       C0000066  -5.705604527152e-05
    RHS       C0000067   3.449025467305e-01
    RHS       C0000068  -5.705604527152e-05
    RHS       C0000069   3.449025467305e-01
    RHS       C0000070  -5.705604527152e-05
    RHS       C0000071   3.449429516102e-01
    RHS       C0000072  -5.705604527152e-05
    RHS       C0000073   3.449429516102e-01
    RHS       C0000074  -5.705604527152e-05
    RHS       C0000075   3.449025467305e-01
    RHS       C0000076  -5.705604527152e-05
    RHS       C0000077   3.449429516102e-01
    RHS       C0000078  -5.705604527152e-05
    RHS       C0000079   3.449025467305e-01
    RHS       C0000080  -5.705604527152e-05
    RHS       C0000081   3.449025467305e-01
    RHS       C0000082  -5.705604527152e-05
    RHS       C0000083   3.449025467305e-01
    RHS       C0000084  -9.746092492869e-05
    RHS       C0000085   3.449025467305e-01
    RHS       C0000086   1.150000000000e-04
    RHS       C0000087   1.150000000000e-04
    RHS       C0000088   1.150000000000e-04
    RHS       C0000089   1.150000000000e-04
    RHS       C0000090   1.150000000000e-04
    RHS       C0000091   5.705604527152e-05
    RHS       C0000092   5.705604527152e-05
    RHS       C0000093   5.705604527152e-05
    RHS       C0000094   5.705604527152e-05
    RHS       C0000095   5.705604527152e-05
    RHS       C0000096   9.746092492869e-05
    RHS       C0000097   9.746092492869e-05
    RHS       C0000098   9.746092492869e-05
    RHS       C0000099   1.150000000000e-04
    RHS       C0000100   1.150000000000e-04
    RHS       C0000101   1.150000000000e-04
    RHS       C0000102   1.150000000000e-04
    RHS       C0000103   1.150000000000e-04
    RHS       C0000104   1.150000000000e-04
    RHS       C0000105   1.150000000000e-04
    RHS       C0000106   1.150000000000e-04
    RHS       C0000107   1.150000000000e-04
    RHS       C0000108   1.150000000000e-04
    RHS       C0000109   5.705604527152e-05
    RHS       C0000110   5.705604527152e-05
    RHS       C0000111   5.705604527152e-05
    RHS       C0000112   5.705604527152e-05
    RHS       C0000113   5.705604527152e-05
    RHS       C0000114   5.705604527152e-05
    RHS       C0000115   5.705604527152e-05
    RHS       C0000116   5.705604527152e-05
    RHS       C0000117   5.705604527152e-05
    RHS       C0000118   5.705604527152e-05
    RHS       C0000119   9.746092492869e-05
    RHS       C0000120   9.746092492869e-05
    RHS       C0000121   9.746092492869e-05
BOUNDS
 BV BND       X0000001
 BV BND       X0000002
 BV BND       X0000003
 BV BND       X0000004
 BV BND       X0000005
 BV BND       X0000006
 BV BND       X0000007
 BV BND       X0000008
 BV BND       X0000009
 BV BND       X0000010
 BV BND       X0000011
 BV BND       X0000012
 BV BND       X0000013
 BV BND       X0000014
 BV BND       X0000015
 BV BND       X0000016
 BV BND       X0000017
 BV BND       X0000018
 BV BND       X0000019
 BV BND       X0000020
 BV BND       X0000021
 BV BND       X0000022
 BV BND       X0000023
 BV BND       X0000024
 BV BND       X0000025
 BV BND       X0000026
 BV BND       X0000027
 BV BND       X0000028
 BV BND       X0000029
 BV BND       X0000030
 BV BND       X0000031
 BV BND       X0000032
 BV BND       X0000033
 BV BND       X0000034
 BV BND       X0000035
 BV BND       X0000036
 BV BND       X0000037
 BV BND       X0000038
 BV BND       X0000039
 BV BND       X0000040
 BV BND       X0000041
 BV BND       X0000042
 BV BND       X0000043
ENDATA
